33
ibuprofen (example)
C     -4.7218    -0.5977    -0.0930
C     -3.2926    -0.0668    -0.2290
C     -3.2144     1.3535     0.3368
C     -2.3112    -1.0241     0.4752
C     -0.8579    -0.7053     0.2178
C     -0.0613    -0.1489     1.2242
C      1.2827     0.1495     0.9842
C      1.8629    -0.1041    -0.2670
C      1.0608    -0.6654    -1.2719
C     -0.2836    -0.9620    -1.0322
C      3.3200     0.2223    -0.5563
C      3.6120     1.7143    -0.3942
C      4.2974    -0.5754     0.2902
O      4.1508    -0.9859     1.4296
O      5.4733    -0.7806    -0.3452
H     -5.0244    -0.6613     0.9579
H     -4.8090    -1.5970    -0.5325
H     -5.4312     0.0564    -0.6110
H     -3.0548    -0.0201    -1.2993
H     -2.2280     1.7960     0.1670
H     -3.4119     1.3635     1.4141
H     -3.9509     2.0042    -0.1470
H     -2.5063    -1.0306     1.5557
H     -2.4905    -2.0540     0.1380
H     -0.4797     0.0568     2.2069
H      1.8761     0.5709     1.7934
H      1.4737    -0.8769    -2.2560
H     -0.8811    -1.3978    -1.8298
H      3.5202    -0.0481    -1.6022
H      2.9352     2.3179    -1.0088
H      4.6394     1.9436    -0.6985
H      3.5047     2.0404     0.6465
H      6.0015    -1.2873     0.3075
