127

N     4.76010084   2.02598643  -6.69430542
C     5.62977886   1.64668584  -5.51222944
C     4.88904333   1.83780801  -4.18639708
O     4.49050236   3.18626857  -3.92128110
P     3.60117888   3.93467641  -5.04821825
O     2.88920283   5.08339977  -4.18077469
C     1.86966336   4.65960217  -3.28556418
C     2.12887192   5.23946524  -1.89522493
O     3.37036085   4.67304325  -1.41146922
C     4.02005577   5.36527967  -0.44439083
O     3.62587905   6.40434313   0.07056927
C     5.29491186   4.65422344  -0.05693047
C     5.36003447   4.42290831   1.45390308
C     4.33988142   3.37559366   1.91634810
C     4.28224468   3.29438472   3.44301891
C     3.15200496   2.39612269   3.94704366
C     1.85665333   3.13351369   4.30960941
C     1.19872761   3.86493206   3.14052010
C    -0.11714347   4.55364418   3.50151992
C    -1.26126122   3.58036208   3.79797435
C    -2.57615042   4.33297968   4.01510811
C    -3.74583101   3.43436480   4.43008709
C    -4.14398623   2.41328955   3.36096215
C    -5.44642591   1.70205653   3.73726225
C    -5.91691446   0.71463203   2.67270303
C    -5.03844070  -0.52016515   2.56148839
C     0.99817002   4.90426350  -0.91180414
O     0.89221597   3.48051238  -0.70892185
C    -0.07287727   2.82964849  -1.41857255
O    -0.93315458   3.37977505  -2.08951712
C     0.10055757   1.33688200  -1.24024677
C    -0.63659352   0.49949187  -2.28374052
C    -2.16523743   0.46490142  -2.15557790
C    -2.71187472   0.03252910  -0.79320973
C    -2.26504064  -1.35326874  -0.30963698
C    -2.72386551  -2.49650645  -1.21801114
C    -2.45968962  -3.85385799  -0.56749189
C    -2.94817901  -4.98307896  -1.42822337
C    -2.22758651  -6.01683140  -1.89528191
C    -0.75987262  -6.25896597  -1.68938947
C    -0.42744020  -6.99750376  -0.38837478
C    -0.49107310  -8.52815533  -0.46902636
C    -1.87605023  -9.14781761  -0.66211182
C    -2.91555643  -8.85494423   0.42962441
C    -2.58792615  -9.48495483   1.79393554
C    -1.92257285  -8.54740620   2.80105257
C    -2.85056472  -7.45930862   3.31515384
O     4.56906271   4.49300385  -6.06452179
O     2.60977292   2.91763186  -5.57074738
C     6.14752007   0.19192085  -5.65288115
O     5.97920370  -0.25587782  -6.83530903
O     6.65801334  -0.35153008  -4.64300919
H     4.90773439   3.03060031  -6.92593288
H     4.99275255   1.38177919  -7.45435143
H     3.74524307   1.95318186  -6.46785879
H     6.48845434   2.32097077  -5.57201004
H     5.54149866   1.55362093  -3.35378003
H     4.00717306   1.19429922  -4.12571526
H     1.83986950   3.56747866  -3.23814058
H     0.90914947   5.01002550  -3.67777491
H     2.24378061   6.32733870  -1.98738122
H     5.36965990   3.69960999  -0.58937818
H     6.13296795   5.27750683  -0.38613689
H     5.18341398   5.37086868   1.97927129
H     6.36547232   4.08422422   1.72029674
H     4.61079359   2.39602828   1.50970352
H     3.35465240   3.61795330   1.51192021
H     5.23699951   2.88686728   3.79738259
H     4.19177961   4.29362535   3.88332725
H     3.49596691   1.89450157   4.86084461
H     2.93777370   1.60283244   3.22255969
H     2.06022477   3.85344768   5.11139297
H     1.15732563   2.40430045   4.72106647
H     1.03649461   3.17850590   2.30305505
H     1.87392604   4.65384340   2.78488708
H    -0.41468978   5.19102001   2.66012478
H     0.03675349   5.22277641   4.35978270
H    -1.36640000   2.88130045   2.96348357
H    -1.03346205   2.99034858   4.69375420
H    -2.84085608   4.87747669   3.09982872
H    -2.43317342   5.09288216   4.79669905
H    -4.60277176   4.08298874   4.65220308
H    -3.49226737   2.91592431   5.36246586
H    -4.26639223   2.91908932   2.39745855
H    -3.33725286   1.68024075   3.24689913
H    -5.32265949   1.18708062   4.69756174
H    -6.23075867   2.45414186   3.88078523
H    -6.93278933   0.39616752   2.91801357
H    -5.97703266   1.21437514   1.69814372
H    -4.97838068  -1.04556990   3.51378322
H    -5.44733763  -1.20976841   1.81550336
H    -4.02574539  -0.26051730   2.24142575
H     1.21954250   5.32674932   0.07466803
H     0.05173038   5.34602499  -1.24240041
H    -0.18706258   1.06620562  -0.22199565
H     1.17089069   1.11940026  -1.34573781
H    -0.26474014  -0.52892268  -2.22704697
H    -0.38310799   0.86185622  -3.28814936
H    -2.56702065   1.45498681  -2.37997127
H    -2.56580019  -0.19861588  -2.93075705
H    -2.43392777   0.77139157  -0.03574578
H    -3.80516505   0.05047344  -0.83953792
H    -1.17910504  -1.38334525  -0.20024204
H    -2.67735267  -1.50737226   0.69081682
H    -3.79364300  -2.38924956  -1.43083131
H    -2.20080352  -2.44240069  -2.18017411
H    -2.99334431  -3.91031003   0.38918075
H    -1.39584732  -3.94679832  -0.32930672
H    -4.00683641  -4.95686102  -1.67702329
H    -2.74352765  -6.75314474  -2.50886393
H    -0.23375314  -5.29391241  -1.69217515
H    -0.36466262  -6.80643654  -2.55382204
H     0.61210859  -6.74368668  -0.13079557
H    -1.03854048  -6.62427282   0.44421640
H    -0.03522296  -8.94615841   0.43730375
H     0.14645372  -8.85941029  -1.30031085
H    -1.75329316 -10.23521137  -0.74441016
H    -2.28443670  -8.83102131  -1.62762868
H    -3.09470105  -7.78084517   0.51703805
H    -3.85829043  -9.29511356   0.08768033
H    -3.51803565  -9.85572433   2.23648429
H    -1.95293558 -10.36701012   1.64995456
H    -1.02238011  -8.09229374   2.37610126
H    -1.59272444  -9.14788818   3.65829229
H    -3.75542879  -7.88936949   3.75459218
H    -2.34691429  -6.87438726   4.09340668
H    -3.14467454  -6.76583147   2.52281618
