97
charge: 0; multiplicity: 1; smiles: CCN(CC)c1ccc2cc(C(=O)OCCOCCOCCOCCOCCOCCOCCOCCOCCO)c(=O)oc2c1; generated_by: Rowan; timestamp: 2026-06-27 23:27:39;
C   -16.35343742  -0.27575523  -1.90069544
C   -15.87279510  -0.75989306  -0.54243922
N   -14.96095848   0.21508221   0.07131860
C   -15.58268166   1.17040610   0.99672139
C   -15.60931683   0.61616260   2.41402507
C   -13.58682251   0.19011736  -0.15541412
C   -13.00409317  -0.65596366  -1.12173367
C   -11.62037086  -0.69709450  -1.36456168
C   -10.76266575   0.11836780  -0.63933307
C    -9.32336903   0.09716452  -0.81171137
C    -8.54080772   0.89898694  -0.06940517
C    -7.08729649   0.73768365  -0.25934324
O    -6.57162476   0.46010205  -1.33394742
O    -6.43670797   0.80101663   0.92757642
C    -5.03699732   0.47758678   0.86720711
C    -4.85391569  -1.04076087   0.89355856
O    -3.50009537  -1.42877531   0.68547118
C    -3.15589738  -1.50549495  -0.70484596
C    -1.71536243  -2.00507617  -0.83764404
O    -0.80463552  -0.93343145  -0.57198936
C     0.51904267  -1.37980628  -0.27796608
C     1.24002707  -1.95961499  -1.49638009
O     2.58329701  -2.31963515  -1.17005539
C     3.49600387  -1.23027623  -1.32178366
C     4.76866055  -1.53180742  -0.53496301
O     5.69431067  -0.44949421  -0.63517809
C     6.67535305  -0.66526568  -1.64796162
C     7.50801659   0.60106218  -1.82621479
O     8.58777714   0.36620528  -2.72937775
C     9.81359100   0.02106753  -2.07509851
C    10.64181995   1.26965809  -1.74677098
O    10.17341995   2.02148080  -0.62504709
C    10.31314182   1.40205181   0.65779072
C    11.76840687   1.15130687   1.06443739
O    12.20440578  -0.09556805   0.51272607
C    13.62111568  -0.25923678   0.54402411
C    14.16005993  -0.58326089   1.93887305
O    15.55823517  -0.86662346   1.90656400
C    16.38850403   0.30230218   1.91941392
C    16.75424957   0.65394837   3.36066341
O    17.44615173  -0.43519041   3.96868443
C    -9.10759735   1.86269081   0.89069325
O    -8.42313290   2.67607164   1.49851680
O   -10.48950577   1.81959891   1.06759727
C   -11.31185436   0.96364534   0.30854714
C   -12.68875217   1.00750411   0.55463982
H   -15.52165890  -0.12901770  -2.59584761
H   -16.87956429   0.67792350  -1.80948997
H   -17.03892136  -1.00527096  -2.34138441
H   -15.41693306  -1.75258064  -0.61669487
H   -16.74725723  -0.90961397   0.10544850
H   -16.61638069   1.37317669   0.67979884
H   -15.08342361   2.14609385   0.97151840
H   -14.60302353   0.39673114   2.78434539
H   -16.07444572   1.33744013   3.09467459
H   -16.18801689  -0.31211463   2.46083426
H   -13.61779690  -1.31711984  -1.73015392
H   -11.24166584  -1.37376642  -2.12555075
H    -8.90833092  -0.60774720  -1.52527440
H    -4.54985332   0.91866595   1.74433064
H    -4.56194544   0.94879436   0.00215686
H    -5.51730776  -1.54751790   0.18331572
H    -5.15090036  -1.40296853   1.88256621
H    -3.82617116  -2.21858072  -1.19931960
H    -3.25951576  -0.51960284  -1.16875529
H    -1.54618394  -2.82552433  -0.13186540
H    -1.54591334  -2.34931588  -1.86314237
H     1.06850219  -0.51285803   0.10074921
H     0.50499642  -2.10291553   0.54792088
H     1.20836139  -1.27205706  -2.35023284
H     0.73313683  -2.87698889  -1.81805408
H     3.72028518  -1.09530282  -2.38755322
H     3.06288576  -0.29075262  -0.95810062
H     5.21285391  -2.48489022  -0.84535331
H     4.50851202  -1.64346194   0.52471954
H     6.19996166  -0.93045521  -2.59998178
H     7.32149744  -1.50352430  -1.35498333
H     6.87807798   1.38413191  -2.26030350
H     7.84330750   0.98323190  -0.85807019
H    10.37783337  -0.57590377  -2.79749846
H     9.62618542  -0.61261201  -1.20364320
H    10.59671593   1.95053208  -2.60376740
H    11.69623947   1.01185775  -1.61365449
H     9.71671009   0.48514932   0.70132357
H     9.87755299   2.10912824   1.36974692
H    11.83208466   1.07715917   2.15400338
H    12.40592575   1.96911550   0.71114743
H    13.86723804  -1.09139073  -0.12706788
H    14.11385727   0.62283170   0.11595825
H    13.65473270  -1.47943449   2.31112790
H    13.94105053   0.21141033   2.65898395
H    17.29181671   0.04010810   1.35863125
H    15.90487003   1.14675379   1.41627920
H    17.40750694   1.53298306   3.39014935
H    15.86247540   0.85490274   3.95992970
H    16.97770119  -1.24593437   3.68205333
H   -13.03256035   1.69066465   1.32484043
